Route #1: 1 9 8 5 17 11 28 35 23 21 24 1
Route #2: 1 25 4 39 13 10 29 30 6 1
Route #3: 1 16 14 31 1
Route #4: 1 27 12 7 2 37 18 22 1
Route #5: 1 38 32 15 36 26 20 34 3 1
Route #6: 1 19 33 1
cost: 934
